benchmarks/loan_acquisition_new/nBench2/run3/mmc_encoding/encoding.dimacs
c max 102  103  108  109  110  111  112  113  117  118 0
c ind 432  433  436  439  440  443  444  447  450  451  454  457  458  461  462  465  468  469  472  473  476  477  480  481  482  485  486  489  490  493  494  497  498  501  502  504  505  506 0
c This is a CNF SAT formula in the DIMACS CNF format,
c produced with the bc2cnf translator by Tommi Junttila;
c see http://users.ics.aalto.fi/tjunttil/circuits/index.html
c phi_Gamma_det <-> 1
c phi_Gamma <-> 1
c phi_T_transitions <-> 1
c phi_T <-> 1
c phi_sim_leaves <-> 1
c phi_sim_transition <-> 1
c phi_sim <-> 1
c FORMULA <-> 1
c pi_0 <-> 2
c phi_T_transitions_consistency <-> 85
c tau_0_3_approved_1 <-> 102
c tau_0_3_approved_0 <-> 103
c tau_0_2_approved_1 <-> 108
c tau_0_2_approved_0 <-> 109
c tau_0_1_approved_1 <-> 110
c tau_0_1_approved_0 <-> 111
c tau_0_0_approved_1 <-> 112
c tau_0_0_approved_0 <-> 113
c phi_T_feature_det <-> 114
c lam_0_monthly_income <-> 117
c lam_0_age <-> 118
c phi_Gamma_val <-> 430
c monthly_income_P308200 <-> 432
c age_P3100 <-> 433
c monthly_income_P921900 <-> 436
c monthly_income_P188100 <-> 439
c age_P4000 <-> 440
c monthly_income_P166900 <-> 443
c age_P2600 <-> 444
c monthly_income_P459100 <-> 447
c monthly_income_P863000 <-> 450
c age_P3200 <-> 451
c monthly_income_P299700 <-> 454
c monthly_income_P959300 <-> 457
c age_P7400 <-> 458
c monthly_income_P526900 <-> 461
c age_P4100 <-> 462
c monthly_income_P983100 <-> 465
c monthly_income_P221300 <-> 468
c age_P7200 <-> 469
c monthly_income_P144900 <-> 472
c age_P7800 <-> 473
c monthly_income_P501700 <-> 476
c age_P4900 <-> 477
c pi_approved_0 <-> 480
c approved_P0 <-> 480
c monthly_income_P942600 <-> 481
c age_P2500 <-> 482
c monthly_income_P496000 <-> 485
c age_P6700 <-> 486
c monthly_income_P847800 <-> 489
c age_P7900 <-> 490
c monthly_income_P963000 <-> 493
c age_P6300 <-> 494
c monthly_income_P376500 <-> 497
c age_P4500 <-> 498
c monthly_income_P310500 <-> 501
c age_P5100 <-> 502
c pi_approved_1 <-> 504
c approved_P100 <-> 504
c monthly_income_P709700 <-> 505
c age_P3500 <-> 506
p cnf 506 1413
1 0
2 -3 0
2 -12 0
-2 12 3 0
2 0
-3 4 0
-3 52 0
3 -52 -4 0
-4 5 0
-4 117 0
4 -117 -5 0
5 -6 0
5 -59 0
-5 59 6 0
6 -7 0
6 -65 0
-6 65 7 0
7 -8 0
7 -33 0
-7 33 8 0
8 -9 0
8 -83 0
-8 83 9 0
9 -10 0
9 -84 0
-9 84 10 0
10 -11 0
10 -41 0
-10 41 11 0
11 -42 0
11 -72 0
-11 72 42 0
12 -13 0
12 -26 0
-12 26 13 0
-13 14 0
-13 74 0
13 -74 -14 0
-14 15 0
-14 117 0
14 -117 -15 0
15 -16 0
15 -57 0
-15 57 16 0
16 -17 0
16 -61 0
-16 61 17 0
17 -18 0
17 -79 0
-17 79 18 0
18 -19 0
18 -63 0
-18 63 19 0
19 -20 0
19 -81 0
-19 81 20 0
20 -21 0
20 -67 0
-20 67 21 0
21 -22 0
21 -35 0
-21 35 22 0
22 -23 0
22 -37 0
-22 37 23 0
23 -24 0
23 -69 0
-23 69 24 0
24 -25 0
24 -39 0
-24 39 25 0
25 -49 0
25 -71 0
-25 71 49 0
26 -27 0
26 -43 0
-26 43 27 0
-27 28 0
-27 31 0
27 -31 -28 0
-28 29 0
-28 30 0
28 -30 -29 0
29 102 0
29 -504 0
-29 504 -102 0
30 103 0
30 -480 0
-30 480 -103 0
-31 32 0
-31 118 0
31 -118 -32 0
32 -33 0
32 -34 0
-32 34 33 0
-33 457 0
-33 458 0
33 -458 -457 0
34 -35 0
34 -36 0
-34 36 35 0
-35 468 0
-35 469 0
35 -469 -468 0
36 -37 0
36 -38 0
-36 38 37 0
-37 472 0
-37 473 0
37 -473 -472 0
38 -39 0
38 -40 0
-38 40 39 0
-39 485 0
-39 486 0
39 -486 -485 0
40 -41 0
40 -42 0
-40 42 41 0
-41 489 0
-41 490 0
41 -490 -489 0
-42 493 0
-42 494 0
42 -494 -493 0
43 -44 0
43 -50 0
-43 50 44 0
-44 45 0
-44 48 0
44 -48 -45 0
-45 46 0
-45 47 0
45 -47 -46 0
46 108 0
46 -504 0
-46 504 -108 0
47 109 0
47 -480 0
-47 480 -109 0
-48 49 0
-48 118 0
48 -118 -49 0
-49 501 0
-49 502 0
49 -502 -501 0
50 -51 0
50 -73 0
-50 73 51 0
-51 52 0
-51 55 0
51 -55 -52 0
-52 53 0
-52 54 0
52 -54 -53 0
53 110 0
53 -504 0
-53 504 -110 0
54 111 0
54 -480 0
-54 480 -111 0
-55 56 0
-55 118 0
55 -118 -56 0
56 -57 0
56 -58 0
-56 58 57 0
-57 432 0
-57 433 0
57 -433 -432 0
58 -59 0
58 -60 0
-58 60 59 0
-59 436 0
-59 462 0
59 -462 -436 0
60 -61 0
60 -62 0
-60 62 61 0
-61 439 0
-61 440 0
61 -440 -439 0
62 -63 0
62 -64 0
-62 64 63 0
-63 447 0
-63 462 0
63 -462 -447 0
64 -65 0
64 -66 0
-64 66 65 0
-65 450 0
-65 451 0
65 -451 -450 0
66 -67 0
66 -68 0
-66 68 67 0
-67 461 0
-67 462 0
67 -462 -461 0
68 -69 0
68 -70 0
-68 70 69 0
-69 476 0
-69 477 0
69 -477 -476 0
70 -71 0
70 -72 0
-70 72 71 0
-71 497 0
-71 498 0
71 -498 -497 0
-72 505 0
-72 506 0
72 -506 -505 0
-73 74 0
-73 77 0
73 -77 -74 0
-74 75 0
-74 76 0
74 -76 -75 0
75 112 0
75 -504 0
-75 504 -112 0
76 113 0
76 -480 0
-76 480 -113 0
-77 78 0
-77 118 0
77 -118 -78 0
78 -79 0
78 -80 0
-78 80 79 0
-79 443 0
-79 444 0
79 -444 -443 0
80 -81 0
80 -82 0
-80 82 81 0
-81 454 0
-81 482 0
81 -482 -454 0
82 -83 0
82 -84 0
-82 84 83 0
-83 465 0
-83 482 0
83 -482 -465 0
-84 481 0
-84 482 0
84 -482 -481 0
85 117 0
85 -86 0
-85 86 -117 0
85 0
-86 -102 0
-86 87 0
86 -87 102 0
-87 -103 0
-87 88 0
87 -88 103 0
-88 -108 0
-88 -109 0
88 109 108 0
89 117 0
89 -90 0
-89 90 -117 0
89 0
-90 91 0
-90 94 0
90 -94 -91 0
91 -92 0
91 -93 0
-91 93 92 0
-92 -111 0
-92 110 0
92 -110 111 0
-93 -110 0
-93 111 0
93 -111 110 0
94 -95 0
94 -96 0
-94 96 95 0
-95 -113 0
-95 112 0
95 -112 113 0
-96 -112 0
-96 113 0
96 -113 112 0
97 118 0
97 -98 0
-97 98 -118 0
97 0
-98 99 0
-98 104 0
98 -104 -99 0
99 -100 0
99 -101 0
-99 101 100 0
-100 -103 0
-100 102 0
100 -102 103 0
-101 -102 0
-101 103 0
101 -103 102 0
-104 90 0
-104 105 0
104 -105 -90 0
105 -106 0
105 -107 0
-105 107 106 0
-106 -109 0
-106 108 0
106 -108 109 0
-107 -108 0
-107 109 0
107 -109 108 0
114 -115 0
114 -116 0
-114 116 115 0
114 0
-115 -118 0
-115 117 0
115 -117 118 0
-116 -117 0
-116 118 0
116 -118 117 0
119 504 0
119 480 0
-119 -480 -504 0
119 0
120 436 0
120 432 0
-120 -432 -436 0
120 0
121 439 0
121 -122 0
-121 122 -439 0
121 0
-122 -436 0
-122 -432 0
122 432 436 0
123 443 0
123 -124 0
-123 124 -443 0
123 0
-124 -432 0
-124 125 0
124 -125 432 0
-125 -436 0
-125 -439 0
125 439 436 0
126 447 0
126 -127 0
-126 127 -447 0
126 0
-127 -432 0
-127 128 0
127 -128 432 0
-128 -436 0
-128 129 0
128 -129 436 0
-129 -439 0
-129 -443 0
129 443 439 0
130 450 0
130 -131 0
-130 131 -450 0
130 0
-131 -432 0
-131 132 0
131 -132 432 0
-132 -436 0
-132 133 0
132 -133 436 0
-133 -439 0
-133 134 0
133 -134 439 0
-134 -443 0
-134 -447 0
134 447 443 0
135 454 0
135 -136 0
-135 136 -454 0
135 0
-136 -432 0
-136 137 0
136 -137 432 0
-137 -436 0
-137 138 0
137 -138 436 0
-138 -439 0
-138 139 0
138 -139 439 0
-139 -443 0
-139 140 0
139 -140 443 0
-140 -447 0
-140 -450 0
140 450 447 0
141 457 0
141 -142 0
-141 142 -457 0
141 0
-142 -432 0
-142 143 0
142 -143 432 0
-143 -436 0
-143 144 0
143 -144 436 0
-144 -439 0
-144 145 0
144 -145 439 0
-145 -443 0
-145 146 0
145 -146 443 0
-146 -447 0
-146 147 0
146 -147 447 0
-147 -450 0
-147 -454 0
147 454 450 0
148 461 0
148 -149 0
-148 149 -461 0
148 0
-149 -432 0
-149 150 0
149 -150 432 0
-150 -436 0
-150 151 0
150 -151 436 0
-151 -439 0
-151 152 0
151 -152 439 0
-152 -443 0
-152 153 0
152 -153 443 0
-153 -447 0
-153 154 0
153 -154 447 0
-154 -450 0
-154 155 0
154 -155 450 0
-155 -454 0
-155 -457 0
155 457 454 0
156 465 0
156 -157 0
-156 157 -465 0
156 0
-157 -432 0
-157 158 0
157 -158 432 0
-158 -436 0
-158 159 0
158 -159 436 0
-159 -439 0
-159 160 0
159 -160 439 0
-160 -443 0
-160 161 0
160 -161 443 0
-161 -447 0
-161 162 0
161 -162 447 0
-162 -450 0
-162 163 0
162 -163 450 0
-163 -454 0
-163 164 0
163 -164 454 0
-164 -457 0
-164 -461 0
164 461 457 0
165 468 0
165 -166 0
-165 166 -468 0
165 0
-166 -432 0
-166 167 0
166 -167 432 0
-167 -436 0
-167 168 0
167 -168 436 0
-168 -439 0
-168 169 0
168 -169 439 0
-169 -443 0
-169 170 0
169 -170 443 0
-170 -447 0
-170 171 0
170 -171 447 0
-171 -450 0
-171 172 0
171 -172 450 0
-172 -454 0
-172 173 0
172 -173 454 0
-173 -457 0
-173 174 0
173 -174 457 0
-174 -461 0
-174 -465 0
174 465 461 0
175 472 0
175 -176 0
-175 176 -472 0
175 0
-176 -432 0
-176 177 0
176 -177 432 0
-177 -436 0
-177 178 0
177 -178 436 0
-178 -439 0
-178 179 0
178 -179 439 0
-179 -443 0
-179 180 0
179 -180 443 0
-180 -447 0
-180 181 0
180 -181 447 0
-181 -450 0
-181 182 0
181 -182 450 0
-182 -454 0
-182 183 0
182 -183 454 0
-183 -457 0
-183 184 0
183 -184 457 0
-184 -461 0
-184 185 0
184 -185 461 0
-185 -465 0
-185 -468 0
185 468 465 0
186 476 0
186 -187 0
-186 187 -476 0
186 0
-187 -432 0
-187 188 0
187 -188 432 0
-188 -436 0
-188 189 0
188 -189 436 0
-189 -439 0
-189 190 0
189 -190 439 0
-190 -443 0
-190 191 0
190 -191 443 0
-191 -447 0
-191 192 0
191 -192 447 0
-192 -450 0
-192 193 0
192 -193 450 0
-193 -454 0
-193 194 0
193 -194 454 0
-194 -457 0
-194 195 0
194 -195 457 0
-195 -461 0
-195 196 0
195 -196 461 0
-196 -465 0
-196 197 0
196 -197 465 0
-197 -468 0
-197 -472 0
197 472 468 0
198 481 0
198 -199 0
-198 199 -481 0
198 0
-199 -432 0
-199 200 0
199 -200 432 0
-200 -436 0
-200 201 0
200 -201 436 0
-201 -439 0
-201 202 0
201 -202 439 0
-202 -443 0
-202 203 0
202 -203 443 0
-203 -447 0
-203 204 0
203 -204 447 0
-204 -450 0
-204 205 0
204 -205 450 0
-205 -454 0
-205 206 0
205 -206 454 0
-206 -457 0
-206 207 0
206 -207 457 0
-207 -461 0
-207 208 0
207 -208 461 0
-208 -465 0
-208 209 0
208 -209 465 0
-209 -468 0
-209 210 0
209 -210 468 0
-210 -472 0
-210 -476 0
210 476 472 0
211 485 0
211 -212 0
-211 212 -485 0
211 0
-212 -432 0
-212 213 0
212 -213 432 0
-213 -436 0
-213 214 0
213 -214 436 0
-214 -439 0
-214 215 0
214 -215 439 0
-215 -443 0
-215 216 0
215 -216 443 0
-216 -447 0
-216 217 0
216 -217 447 0
-217 -450 0
-217 218 0
217 -218 450 0
-218 -454 0
-218 219 0
218 -219 454 0
-219 -457 0
-219 220 0
219 -220 457 0
-220 -461 0
-220 221 0
220 -221 461 0
-221 -465 0
-221 222 0
221 -222 465 0
-222 -468 0
-222 223 0
222 -223 468 0
-223 -472 0
-223 224 0
223 -224 472 0
-224 -476 0
-224 -481 0
224 481 476 0
225 489 0
225 -226 0
-225 226 -489 0
225 0
-226 -432 0
-226 227 0
226 -227 432 0
-227 -436 0
-227 228 0
227 -228 436 0
-228 -439 0
-228 229 0
228 -229 439 0
-229 -443 0
-229 230 0
229 -230 443 0
-230 -447 0
-230 231 0
230 -231 447 0
-231 -450 0
-231 232 0
231 -232 450 0
-232 -454 0
-232 233 0
232 -233 454 0
-233 -457 0
-233 234 0
233 -234 457 0
-234 -461 0
-234 235 0
234 -235 461 0
-235 -465 0
-235 236 0
235 -236 465 0
-236 -468 0
-236 237 0
236 -237 468 0
-237 -472 0
-237 238 0
237 -238 472 0
-238 -476 0
-238 239 0
238 -239 476 0
-239 -481 0
-239 -485 0
239 485 481 0
240 493 0
240 -241 0
-240 241 -493 0
240 0
-241 -432 0
-241 242 0
241 -242 432 0
-242 -436 0
-242 243 0
242 -243 436 0
-243 -439 0
-243 244 0
243 -244 439 0
-244 -443 0
-244 245 0
244 -245 443 0
-245 -447 0
-245 246 0
245 -246 447 0
-246 -450 0
-246 247 0
246 -247 450 0
-247 -454 0
-247 248 0
247 -248 454 0
-248 -457 0
-248 249 0
248 -249 457 0
-249 -461 0
-249 250 0
249 -250 461 0
-250 -465 0
-250 251 0
250 -251 465 0
-251 -468 0
-251 252 0
251 -252 468 0
-252 -472 0
-252 253 0
252 -253 472 0
-253 -476 0
-253 254 0
253 -254 476 0
-254 -481 0
-254 255 0
254 -255 481 0
-255 -485 0
-255 -489 0
255 489 485 0
256 497 0
256 -257 0
-256 257 -497 0
256 0
-257 -432 0
-257 258 0
257 -258 432 0
-258 -436 0
-258 259 0
258 -259 436 0
-259 -439 0
-259 260 0
259 -260 439 0
-260 -443 0
-260 261 0
260 -261 443 0
-261 -447 0
-261 262 0
261 -262 447 0
-262 -450 0
-262 263 0
262 -263 450 0
-263 -454 0
-263 264 0
263 -264 454 0
-264 -457 0
-264 265 0
264 -265 457 0
-265 -461 0
-265 266 0
265 -266 461 0
-266 -465 0
-266 267 0
266 -267 465 0
-267 -468 0
-267 268 0
267 -268 468 0
-268 -472 0
-268 269 0
268 -269 472 0
-269 -476 0
-269 270 0
269 -270 476 0
-270 -481 0
-270 271 0
270 -271 481 0
-271 -485 0
-271 272 0
271 -272 485 0
-272 -489 0
-272 -493 0
272 493 489 0
273 501 0
273 -274 0
-273 274 -501 0
273 0
-274 -432 0
-274 275 0
274 -275 432 0
-275 -436 0
-275 276 0
275 -276 436 0
-276 -439 0
-276 277 0
276 -277 439 0
-277 -443 0
-277 278 0
277 -278 443 0
-278 -447 0
-278 279 0
278 -279 447 0
-279 -450 0
-279 280 0
279 -280 450 0
-280 -454 0
-280 281 0
280 -281 454 0
-281 -457 0
-281 282 0
281 -282 457 0
-282 -461 0
-282 283 0
282 -283 461 0
-283 -465 0
-283 284 0
283 -284 465 0
-284 -468 0
-284 285 0
284 -285 468 0
-285 -472 0
-285 286 0
285 -286 472 0
-286 -476 0
-286 287 0
286 -287 476 0
-287 -481 0
-287 288 0
287 -288 481 0
-288 -485 0
-288 289 0
288 -289 485 0
-289 -489 0
-289 290 0
289 -290 489 0
-290 -493 0
-290 -497 0
290 497 493 0
291 505 0
291 -292 0
-291 292 -505 0
291 0
-292 -432 0
-292 293 0
292 -293 432 0
-293 -436 0
-293 294 0
293 -294 436 0
-294 -439 0
-294 295 0
294 -295 439 0
-295 -443 0
-295 296 0
295 -296 443 0
-296 -447 0
-296 297 0
296 -297 447 0
-297 -450 0
-297 298 0
297 -298 450 0
-298 -454 0
-298 299 0
298 -299 454 0
-299 -457 0
-299 300 0
299 -300 457 0
-300 -461 0
-300 301 0
300 -301 461 0
-301 -465 0
-301 302 0
301 -302 465 0
-302 -468 0
-302 303 0
302 -303 468 0
-303 -472 0
-303 304 0
303 -304 472 0
-304 -476 0
-304 305 0
304 -305 476 0
-305 -481 0
-305 306 0
305 -306 481 0
-306 -485 0
-306 307 0
306 -307 485 0
-307 -489 0
-307 308 0
307 -308 489 0
-308 -493 0
-308 309 0
308 -309 493 0
-309 -497 0
-309 -501 0
309 501 497 0
310 440 0
310 433 0
-310 -433 -440 0
310 0
311 444 0
311 -312 0
-311 312 -444 0
311 0
-312 -440 0
-312 -433 0
312 433 440 0
313 451 0
313 -314 0
-313 314 -451 0
313 0
-314 -433 0
-314 315 0
314 -315 433 0
-315 -440 0
-315 -444 0
315 444 440 0
316 458 0
316 -317 0
-316 317 -458 0
316 0
-317 -433 0
-317 318 0
317 -318 433 0
-318 -440 0
-318 319 0
318 -319 440 0
-319 -444 0
-319 -451 0
319 451 444 0
320 462 0
320 -321 0
-320 321 -462 0
320 0
-321 -433 0
-321 322 0
321 -322 433 0
-322 -440 0
-322 323 0
322 -323 440 0
-323 -444 0
-323 324 0
323 -324 444 0
-324 -451 0
-324 -458 0
324 458 451 0
325 469 0
325 -326 0
-325 326 -469 0
325 0
-326 -433 0
-326 327 0
326 -327 433 0
-327 -440 0
-327 328 0
327 -328 440 0
-328 -444 0
-328 329 0
328 -329 444 0
-329 -451 0
-329 330 0
329 -330 451 0
-330 -458 0
-330 -462 0
330 462 458 0
331 473 0
331 -332 0
-331 332 -473 0
331 0
-332 -433 0
-332 333 0
332 -333 433 0
-333 -440 0
-333 334 0
333 -334 440 0
-334 -444 0
-334 335 0
334 -335 444 0
-335 -451 0
-335 336 0
335 -336 451 0
-336 -458 0
-336 337 0
336 -337 458 0
-337 -462 0
-337 -469 0
337 469 462 0
338 477 0
338 -339 0
-338 339 -477 0
338 0
-339 -433 0
-339 340 0
339 -340 433 0
-340 -440 0
-340 341 0
340 -341 440 0
-341 -444 0
-341 342 0
341 -342 444 0
-342 -451 0
-342 343 0
342 -343 451 0
-343 -458 0
-343 344 0
343 -344 458 0
-344 -462 0
-344 345 0
344 -345 462 0
-345 -469 0
-345 -473 0
345 473 469 0
346 482 0
346 -347 0
-346 347 -482 0
346 0
-347 -433 0
-347 348 0
347 -348 433 0
-348 -440 0
-348 349 0
348 -349 440 0
-349 -444 0
-349 350 0
349 -350 444 0
-350 -451 0
-350 351 0
350 -351 451 0
-351 -458 0
-351 352 0
351 -352 458 0
-352 -462 0
-352 353 0
352 -353 462 0
-353 -469 0
-353 354 0
353 -354 469 0
-354 -473 0
-354 -477 0
354 477 473 0
355 486 0
355 -356 0
-355 356 -486 0
355 0
-356 -433 0
-356 357 0
356 -357 433 0
-357 -440 0
-357 358 0
357 -358 440 0
-358 -444 0
-358 359 0
358 -359 444 0
-359 -451 0
-359 360 0
359 -360 451 0
-360 -458 0
-360 361 0
360 -361 458 0
-361 -462 0
-361 362 0
361 -362 462 0
-362 -469 0
-362 363 0
362 -363 469 0
-363 -473 0
-363 364 0
363 -364 473 0
-364 -477 0
-364 -482 0
364 482 477 0
365 490 0
365 -366 0
-365 366 -490 0
365 0
-366 -433 0
-366 367 0
366 -367 433 0
-367 -440 0
-367 368 0
367 -368 440 0
-368 -444 0
-368 369 0
368 -369 444 0
-369 -451 0
-369 370 0
369 -370 451 0
-370 -458 0
-370 371 0
370 -371 458 0
-371 -462 0
-371 372 0
371 -372 462 0
-372 -469 0
-372 373 0
372 -373 469 0
-373 -473 0
-373 374 0
373 -374 473 0
-374 -477 0
-374 375 0
374 -375 477 0
-375 -482 0
-375 -486 0
375 486 482 0
376 494 0
376 -377 0
-376 377 -494 0
376 0
-377 -433 0
-377 378 0
377 -378 433 0
-378 -440 0
-378 379 0
378 -379 440 0
-379 -444 0
-379 380 0
379 -380 444 0
-380 -451 0
-380 381 0
380 -381 451 0
-381 -458 0
-381 382 0
381 -382 458 0
-382 -462 0
-382 383 0
382 -383 462 0
-383 -469 0
-383 384 0
383 -384 469 0
-384 -473 0
-384 385 0
384 -385 473 0
-385 -477 0
-385 386 0
385 -386 477 0
-386 -482 0
-386 387 0
386 -387 482 0
-387 -486 0
-387 -490 0
387 490 486 0
388 498 0
388 -389 0
-388 389 -498 0
388 0
-389 -433 0
-389 390 0
389 -390 433 0
-390 -440 0
-390 391 0
390 -391 440 0
-391 -444 0
-391 392 0
391 -392 444 0
-392 -451 0
-392 393 0
392 -393 451 0
-393 -458 0
-393 394 0
393 -394 458 0
-394 -462 0
-394 395 0
394 -395 462 0
-395 -469 0
-395 396 0
395 -396 469 0
-396 -473 0
-396 397 0
396 -397 473 0
-397 -477 0
-397 398 0
397 -398 477 0
-398 -482 0
-398 399 0
398 -399 482 0
-399 -486 0
-399 400 0
399 -400 486 0
-400 -490 0
-400 -494 0
400 494 490 0
401 502 0
401 -402 0
-401 402 -502 0
401 0
-402 -433 0
-402 403 0
402 -403 433 0
-403 -440 0
-403 404 0
403 -404 440 0
-404 -444 0
-404 405 0
404 -405 444 0
-405 -451 0
-405 406 0
405 -406 451 0
-406 -458 0
-406 407 0
406 -407 458 0
-407 -462 0
-407 408 0
407 -408 462 0
-408 -469 0
-408 409 0
408 -409 469 0
-409 -473 0
-409 410 0
409 -410 473 0
-410 -477 0
-410 411 0
410 -411 477 0
-411 -482 0
-411 412 0
411 -412 482 0
-412 -486 0
-412 413 0
412 -413 486 0
-413 -490 0
-413 414 0
413 -414 490 0
-414 -494 0
-414 -498 0
414 498 494 0
415 506 0
415 -416 0
-415 416 -506 0
415 0
-416 -433 0
-416 417 0
416 -417 433 0
-417 -440 0
-417 418 0
417 -418 440 0
-418 -444 0
-418 419 0
418 -419 444 0
-419 -451 0
-419 420 0
419 -420 451 0
-420 -458 0
-420 421 0
420 -421 458 0
-421 -462 0
-421 422 0
421 -422 462 0
-422 -469 0
-422 423 0
422 -423 469 0
-423 -473 0
-423 424 0
423 -424 473 0
-424 -477 0
-424 425 0
424 -425 477 0
-425 -482 0
-425 426 0
425 -426 482 0
-426 -486 0
-426 427 0
426 -427 486 0
-427 -490 0
-427 428 0
427 -428 490 0
-428 -494 0
-428 429 0
428 -429 494 0
-429 -498 0
-429 -502 0
429 502 498 0
430 -431 0
430 -434 0
-430 434 431 0
430 0
-431 57 0
-431 504 0
431 -504 -57 0
434 -435 0
434 -437 0
-434 437 435 0
-435 59 0
-435 504 0
435 -504 -59 0
437 -438 0
437 -441 0
-437 441 438 0
-438 61 0
-438 504 0
438 -504 -61 0
441 -442 0
441 -445 0
-441 445 442 0
-442 79 0
-442 504 0
442 -504 -79 0
445 -446 0
445 -448 0
-445 448 446 0
-446 63 0
-446 504 0
446 -504 -63 0
448 -449 0
448 -452 0
-448 452 449 0
-449 65 0
-449 480 0
449 -480 -65 0
452 -453 0
452 -455 0
-452 455 453 0
-453 81 0
-453 504 0
453 -504 -81 0
455 -456 0
455 -459 0
-455 459 456 0
-456 33 0
-456 504 0
456 -504 -33 0
459 -460 0
459 -463 0
-459 463 460 0
-460 67 0
-460 504 0
460 -504 -67 0
463 -464 0
463 -466 0
-463 466 464 0
-464 83 0
-464 480 0
464 -480 -83 0
466 -467 0
466 -470 0
-466 470 467 0
-467 35 0
-467 504 0
467 -504 -35 0
470 -471 0
470 -474 0
-470 474 471 0
-471 37 0
-471 504 0
471 -504 -37 0
474 -475 0
474 -478 0
-474 478 475 0
-475 69 0
-475 504 0
475 -504 -69 0
478 -479 0
478 -483 0
-478 483 479 0
-479 84 0
-479 480 0
479 -480 -84 0
483 -484 0
483 -487 0
-483 487 484 0
-484 39 0
-484 504 0
484 -504 -39 0
487 -488 0
487 -491 0
-487 491 488 0
-488 41 0
-488 504 0
488 -504 -41 0
491 -492 0
491 -495 0
-491 495 492 0
-492 42 0
-492 504 0
492 -504 -42 0
495 -496 0
495 -499 0
-495 499 496 0
-496 71 0
-496 504 0
496 -504 -71 0
499 -500 0
499 -503 0
-499 503 500 0
-500 49 0
-500 504 0
500 -504 -49 0
-503 72 0
-503 504 0
503 -504 -72 0
